data;
set V := 1 2 3 4 5 6 7 8 9 10 11 12 13 14 15 16 17 18 19 20 21 22 23 24 25 26 27 28 29 30 31 32 33 34 35 36;
set E :=
	(1,8)
	(8,1)
	(1,15)
	(15,1)
	(1,22)
	(22,1)
	(1,29)
	(29,1)
	(1,36)
	(36,1)
	(1,2)
	(2,1)
	(1,3)
	(3,1)
	(1,4)
	(4,1)
	(1,5)
	(5,1)
	(1,6)
	(6,1)
	(1,7)
	(7,1)
	(1,13)
	(13,1)
	(1,19)
	(19,1)
	(1,25)
	(25,1)
	(1,31)
	(31,1)
	(2,9)
	(9,2)
	(2,16)
	(16,2)
	(2,23)
	(23,2)
	(2,30)
	(30,2)
	(2,7)
	(7,2)
	(2,3)
	(3,2)
	(2,4)
	(4,2)
	(2,5)
	(5,2)
	(2,6)
	(6,2)
	(2,8)
	(8,2)
	(2,14)
	(14,2)
	(2,20)
	(20,2)
	(2,26)
	(26,2)
	(2,32)
	(32,2)
	(2,1)
	(1,2)
	(3,10)
	(10,3)
	(3,17)
	(17,3)
	(3,24)
	(24,3)
	(3,8)
	(8,3)
	(3,13)
	(13,3)
	(3,4)
	(4,3)
	(3,5)
	(5,3)
	(3,6)
	(6,3)
	(3,9)
	(9,3)
	(3,15)
	(15,3)
	(3,21)
	(21,3)
	(3,27)
	(27,3)
	(3,33)
	(33,3)
	(3,2)
	(2,3)
	(3,1)
	(1,3)
	(4,11)
	(11,4)
	(4,18)
	(18,4)
	(4,9)
	(9,4)
	(4,14)
	(14,4)
	(4,19)
	(19,4)
	(4,5)
	(5,4)
	(4,6)
	(6,4)
	(4,10)
	(10,4)
	(4,16)
	(16,4)
	(4,22)
	(22,4)
	(4,28)
	(28,4)
	(4,34)
	(34,4)
	(4,3)
	(3,4)
	(4,2)
	(2,4)
	(4,1)
	(1,4)
	(5,12)
	(12,5)
	(5,10)
	(10,5)
	(5,15)
	(15,5)
	(5,20)
	(20,5)
	(5,25)
	(25,5)
	(5,6)
	(6,5)
	(5,11)
	(11,5)
	(5,17)
	(17,5)
	(5,23)
	(23,5)
	(5,29)
	(29,5)
	(5,35)
	(35,5)
	(5,4)
	(4,5)
	(5,3)
	(3,5)
	(5,2)
	(2,5)
	(5,1)
	(1,5)
	(6,11)
	(11,6)
	(6,16)
	(16,6)
	(6,21)
	(21,6)
	(6,26)
	(26,6)
	(6,31)
	(31,6)
	(6,12)
	(12,6)
	(6,18)
	(18,6)
	(6,24)
	(24,6)
	(6,30)
	(30,6)
	(6,36)
	(36,6)
	(6,5)
	(5,6)
	(6,4)
	(4,6)
	(6,3)
	(3,6)
	(6,2)
	(2,6)
	(6,1)
	(1,6)
	(7,14)
	(14,7)
	(7,21)
	(21,7)
	(7,28)
	(28,7)
	(7,35)
	(35,7)
	(7,8)
	(8,7)
	(7,9)
	(9,7)
	(7,10)
	(10,7)
	(7,11)
	(11,7)
	(7,12)
	(12,7)
	(7,13)
	(13,7)
	(7,19)
	(19,7)
	(7,25)
	(25,7)
	(7,31)
	(31,7)
	(7,2)
	(2,7)
	(7,1)
	(1,7)
	(8,15)
	(15,8)
	(8,22)
	(22,8)
	(8,29)
	(29,8)
	(8,36)
	(36,8)
	(8,13)
	(13,8)
	(8,9)
	(9,8)
	(8,10)
	(10,8)
	(8,11)
	(11,8)
	(8,12)
	(12,8)
	(8,14)
	(14,8)
	(8,20)
	(20,8)
	(8,26)
	(26,8)
	(8,32)
	(32,8)
	(8,7)
	(7,8)
	(8,3)
	(3,8)
	(8,2)
	(2,8)
	(8,1)
	(1,8)
	(9,16)
	(16,9)
	(9,23)
	(23,9)
	(9,30)
	(30,9)
	(9,14)
	(14,9)
	(9,19)
	(19,9)
	(9,10)
	(10,9)
	(9,11)
	(11,9)
	(9,12)
	(12,9)
	(9,15)
	(15,9)
	(9,21)
	(21,9)
	(9,27)
	(27,9)
	(9,33)
	(33,9)
	(9,8)
	(8,9)
	(9,7)
	(7,9)
	(9,4)
	(4,9)
	(9,3)
	(3,9)
	(9,2)
	(2,9)
	(10,17)
	(17,10)
	(10,24)
	(24,10)
	(10,15)
	(15,10)
	(10,20)
	(20,10)
	(10,25)
	(25,10)
	(10,11)
	(11,10)
	(10,12)
	(12,10)
	(10,16)
	(16,10)
	(10,22)
	(22,10)
	(10,28)
	(28,10)
	(10,34)
	(34,10)
	(10,9)
	(9,10)
	(10,8)
	(8,10)
	(10,7)
	(7,10)
	(10,5)
	(5,10)
	(10,4)
	(4,10)
	(10,3)
	(3,10)
	(11,18)
	(18,11)
	(11,16)
	(16,11)
	(11,21)
	(21,11)
	(11,26)
	(26,11)
	(11,31)
	(31,11)
	(11,12)
	(12,11)
	(11,17)
	(17,11)
	(11,23)
	(23,11)
	(11,29)
	(29,11)
	(11,35)
	(35,11)
	(11,10)
	(10,11)
	(11,9)
	(9,11)
	(11,8)
	(8,11)
	(11,7)
	(7,11)
	(11,6)
	(6,11)
	(11,5)
	(5,11)
	(11,4)
	(4,11)
	(12,17)
	(17,12)
	(12,22)
	(22,12)
	(12,27)
	(27,12)
	(12,32)
	(32,12)
	(12,18)
	(18,12)
	(12,24)
	(24,12)
	(12,30)
	(30,12)
	(12,36)
	(36,12)
	(12,11)
	(11,12)
	(12,10)
	(10,12)
	(12,9)
	(9,12)
	(12,8)
	(8,12)
	(12,7)
	(7,12)
	(12,6)
	(6,12)
	(12,5)
	(5,12)
	(13,20)
	(20,13)
	(13,27)
	(27,13)
	(13,34)
	(34,13)
	(13,14)
	(14,13)
	(13,15)
	(15,13)
	(13,16)
	(16,13)
	(13,17)
	(17,13)
	(13,18)
	(18,13)
	(13,19)
	(19,13)
	(13,25)
	(25,13)
	(13,31)
	(31,13)
	(13,8)
	(8,13)
	(13,7)
	(7,13)
	(13,3)
	(3,13)
	(13,1)
	(1,13)
	(14,21)
	(21,14)
	(14,28)
	(28,14)
	(14,35)
	(35,14)
	(14,19)
	(19,14)
	(14,15)
	(15,14)
	(14,16)
	(16,14)
	(14,17)
	(17,14)
	(14,18)
	(18,14)
	(14,20)
	(20,14)
	(14,26)
	(26,14)
	(14,32)
	(32,14)
	(14,13)
	(13,14)
	(14,9)
	(9,14)
	(14,8)
	(8,14)
	(14,7)
	(7,14)
	(14,4)
	(4,14)
	(14,2)
	(2,14)
	(15,22)
	(22,15)
	(15,29)
	(29,15)
	(15,36)
	(36,15)
	(15,20)
	(20,15)
	(15,25)
	(25,15)
	(15,16)
	(16,15)
	(15,17)
	(17,15)
	(15,18)
	(18,15)
	(15,21)
	(21,15)
	(15,27)
	(27,15)
	(15,33)
	(33,15)
	(15,14)
	(14,15)
	(15,13)
	(13,15)
	(15,10)
	(10,15)
	(15,9)
	(9,15)
	(15,8)
	(8,15)
	(15,5)
	(5,15)
	(15,3)
	(3,15)
	(15,1)
	(1,15)
	(16,23)
	(23,16)
	(16,30)
	(30,16)
	(16,21)
	(21,16)
	(16,26)
	(26,16)
	(16,31)
	(31,16)
	(16,17)
	(17,16)
	(16,18)
	(18,16)
	(16,22)
	(22,16)
	(16,28)
	(28,16)
	(16,34)
	(34,16)
	(16,15)
	(15,16)
	(16,14)
	(14,16)
	(16,13)
	(13,16)
	(16,11)
	(11,16)
	(16,10)
	(10,16)
	(16,9)
	(9,16)
	(16,6)
	(6,16)
	(16,4)
	(4,16)
	(16,2)
	(2,16)
	(17,24)
	(24,17)
	(17,22)
	(22,17)
	(17,27)
	(27,17)
	(17,32)
	(32,17)
	(17,18)
	(18,17)
	(17,23)
	(23,17)
	(17,29)
	(29,17)
	(17,35)
	(35,17)
	(17,16)
	(16,17)
	(17,15)
	(15,17)
	(17,14)
	(14,17)
	(17,13)
	(13,17)
	(17,12)
	(12,17)
	(17,11)
	(11,17)
	(17,10)
	(10,17)
	(17,5)
	(5,17)
	(17,3)
	(3,17)
	(18,23)
	(23,18)
	(18,28)
	(28,18)
	(18,33)
	(33,18)
	(18,24)
	(24,18)
	(18,30)
	(30,18)
	(18,36)
	(36,18)
	(18,17)
	(17,18)
	(18,16)
	(16,18)
	(18,15)
	(15,18)
	(18,14)
	(14,18)
	(18,13)
	(13,18)
	(18,12)
	(12,18)
	(18,11)
	(11,18)
	(18,6)
	(6,18)
	(18,4)
	(4,18)
	(19,26)
	(26,19)
	(19,33)
	(33,19)
	(19,20)
	(20,19)
	(19,21)
	(21,19)
	(19,22)
	(22,19)
	(19,23)
	(23,19)
	(19,24)
	(24,19)
	(19,25)
	(25,19)
	(19,31)
	(31,19)
	(19,14)
	(14,19)
	(19,13)
	(13,19)
	(19,9)
	(9,19)
	(19,7)
	(7,19)
	(19,4)
	(4,19)
	(19,1)
	(1,19)
	(20,27)
	(27,20)
	(20,34)
	(34,20)
	(20,25)
	(25,20)
	(20,21)
	(21,20)
	(20,22)
	(22,20)
	(20,23)
	(23,20)
	(20,24)
	(24,20)
	(20,26)
	(26,20)
	(20,32)
	(32,20)
	(20,19)
	(19,20)
	(20,15)
	(15,20)
	(20,14)
	(14,20)
	(20,13)
	(13,20)
	(20,10)
	(10,20)
	(20,8)
	(8,20)
	(20,5)
	(5,20)
	(20,2)
	(2,20)
	(21,28)
	(28,21)
	(21,35)
	(35,21)
	(21,26)
	(26,21)
	(21,31)
	(31,21)
	(21,22)
	(22,21)
	(21,23)
	(23,21)
	(21,24)
	(24,21)
	(21,27)
	(27,21)
	(21,33)
	(33,21)
	(21,20)
	(20,21)
	(21,19)
	(19,21)
	(21,16)
	(16,21)
	(21,15)
	(15,21)
	(21,14)
	(14,21)
	(21,11)
	(11,21)
	(21,9)
	(9,21)
	(21,7)
	(7,21)
	(21,6)
	(6,21)
	(21,3)
	(3,21)
	(22,29)
	(29,22)
	(22,36)
	(36,22)
	(22,27)
	(27,22)
	(22,32)
	(32,22)
	(22,23)
	(23,22)
	(22,24)
	(24,22)
	(22,28)
	(28,22)
	(22,34)
	(34,22)
	(22,21)
	(21,22)
	(22,20)
	(20,22)
	(22,19)
	(19,22)
	(22,17)
	(17,22)
	(22,16)
	(16,22)
	(22,15)
	(15,22)
	(22,12)
	(12,22)
	(22,10)
	(10,22)
	(22,8)
	(8,22)
	(22,4)
	(4,22)
	(22,1)
	(1,22)
	(23,30)
	(30,23)
	(23,28)
	(28,23)
	(23,33)
	(33,23)
	(23,24)
	(24,23)
	(23,29)
	(29,23)
	(23,35)
	(35,23)
	(23,22)
	(22,23)
	(23,21)
	(21,23)
	(23,20)
	(20,23)
	(23,19)
	(19,23)
	(23,18)
	(18,23)
	(23,17)
	(17,23)
	(23,16)
	(16,23)
	(23,11)
	(11,23)
	(23,9)
	(9,23)
	(23,5)
	(5,23)
	(23,2)
	(2,23)
	(24,29)
	(29,24)
	(24,34)
	(34,24)
	(24,30)
	(30,24)
	(24,36)
	(36,24)
	(24,23)
	(23,24)
	(24,22)
	(22,24)
	(24,21)
	(21,24)
	(24,20)
	(20,24)
	(24,19)
	(19,24)
	(24,18)
	(18,24)
	(24,17)
	(17,24)
	(24,12)
	(12,24)
	(24,10)
	(10,24)
	(24,6)
	(6,24)
	(24,3)
	(3,24)
	(25,32)
	(32,25)
	(25,26)
	(26,25)
	(25,27)
	(27,25)
	(25,28)
	(28,25)
	(25,29)
	(29,25)
	(25,30)
	(30,25)
	(25,31)
	(31,25)
	(25,20)
	(20,25)
	(25,19)
	(19,25)
	(25,15)
	(15,25)
	(25,13)
	(13,25)
	(25,10)
	(10,25)
	(25,7)
	(7,25)
	(25,5)
	(5,25)
	(25,1)
	(1,25)
	(26,33)
	(33,26)
	(26,31)
	(31,26)
	(26,27)
	(27,26)
	(26,28)
	(28,26)
	(26,29)
	(29,26)
	(26,30)
	(30,26)
	(26,32)
	(32,26)
	(26,25)
	(25,26)
	(26,21)
	(21,26)
	(26,20)
	(20,26)
	(26,19)
	(19,26)
	(26,16)
	(16,26)
	(26,14)
	(14,26)
	(26,11)
	(11,26)
	(26,8)
	(8,26)
	(26,6)
	(6,26)
	(26,2)
	(2,26)
	(27,34)
	(34,27)
	(27,32)
	(32,27)
	(27,28)
	(28,27)
	(27,29)
	(29,27)
	(27,30)
	(30,27)
	(27,33)
	(33,27)
	(27,26)
	(26,27)
	(27,25)
	(25,27)
	(27,22)
	(22,27)
	(27,21)
	(21,27)
	(27,20)
	(20,27)
	(27,17)
	(17,27)
	(27,15)
	(15,27)
	(27,13)
	(13,27)
	(27,12)
	(12,27)
	(27,9)
	(9,27)
	(27,3)
	(3,27)
	(28,35)
	(35,28)
	(28,33)
	(33,28)
	(28,29)
	(29,28)
	(28,30)
	(30,28)
	(28,34)
	(34,28)
	(28,27)
	(27,28)
	(28,26)
	(26,28)
	(28,25)
	(25,28)
	(28,23)
	(23,28)
	(28,22)
	(22,28)
	(28,21)
	(21,28)
	(28,18)
	(18,28)
	(28,16)
	(16,28)
	(28,14)
	(14,28)
	(28,10)
	(10,28)
	(28,7)
	(7,28)
	(28,4)
	(4,28)
	(29,36)
	(36,29)
	(29,34)
	(34,29)
	(29,30)
	(30,29)
	(29,35)
	(35,29)
	(29,28)
	(28,29)
	(29,27)
	(27,29)
	(29,26)
	(26,29)
	(29,25)
	(25,29)
	(29,24)
	(24,29)
	(29,23)
	(23,29)
	(29,22)
	(22,29)
	(29,17)
	(17,29)
	(29,15)
	(15,29)
	(29,11)
	(11,29)
	(29,8)
	(8,29)
	(29,5)
	(5,29)
	(29,1)
	(1,29)
	(30,35)
	(35,30)
	(30,36)
	(36,30)
	(30,29)
	(29,30)
	(30,28)
	(28,30)
	(30,27)
	(27,30)
	(30,26)
	(26,30)
	(30,25)
	(25,30)
	(30,24)
	(24,30)
	(30,23)
	(23,30)
	(30,18)
	(18,30)
	(30,16)
	(16,30)
	(30,12)
	(12,30)
	(30,9)
	(9,30)
	(30,6)
	(6,30)
	(30,2)
	(2,30)
	(31,32)
	(32,31)
	(31,33)
	(33,31)
	(31,34)
	(34,31)
	(31,35)
	(35,31)
	(31,36)
	(36,31)
	(31,26)
	(26,31)
	(31,25)
	(25,31)
	(31,21)
	(21,31)
	(31,19)
	(19,31)
	(31,16)
	(16,31)
	(31,13)
	(13,31)
	(31,11)
	(11,31)
	(31,7)
	(7,31)
	(31,6)
	(6,31)
	(31,1)
	(1,31)
	(32,33)
	(33,32)
	(32,34)
	(34,32)
	(32,35)
	(35,32)
	(32,36)
	(36,32)
	(32,31)
	(31,32)
	(32,27)
	(27,32)
	(32,26)
	(26,32)
	(32,25)
	(25,32)
	(32,22)
	(22,32)
	(32,20)
	(20,32)
	(32,17)
	(17,32)
	(32,14)
	(14,32)
	(32,12)
	(12,32)
	(32,8)
	(8,32)
	(32,2)
	(2,32)
	(33,34)
	(34,33)
	(33,35)
	(35,33)
	(33,36)
	(36,33)
	(33,32)
	(32,33)
	(33,31)
	(31,33)
	(33,28)
	(28,33)
	(33,27)
	(27,33)
	(33,26)
	(26,33)
	(33,23)
	(23,33)
	(33,21)
	(21,33)
	(33,19)
	(19,33)
	(33,18)
	(18,33)
	(33,15)
	(15,33)
	(33,9)
	(9,33)
	(33,3)
	(3,33)
	(34,35)
	(35,34)
	(34,36)
	(36,34)
	(34,33)
	(33,34)
	(34,32)
	(32,34)
	(34,31)
	(31,34)
	(34,29)
	(29,34)
	(34,28)
	(28,34)
	(34,27)
	(27,34)
	(34,24)
	(24,34)
	(34,22)
	(22,34)
	(34,20)
	(20,34)
	(34,16)
	(16,34)
	(34,13)
	(13,34)
	(34,10)
	(10,34)
	(34,4)
	(4,34)
	(35,36)
	(36,35)
	(35,34)
	(34,35)
	(35,33)
	(33,35)
	(35,32)
	(32,35)
	(35,31)
	(31,35)
	(35,30)
	(30,35)
	(35,29)
	(29,35)
	(35,28)
	(28,35)
	(35,23)
	(23,35)
	(35,21)
	(21,35)
	(35,17)
	(17,35)
	(35,14)
	(14,35)
	(35,11)
	(11,35)
	(35,7)
	(7,35)
	(35,5)
	(5,35)
	(36,35)
	(35,36)
	(36,34)
	(34,36)
	(36,33)
	(33,36)
	(36,32)
	(32,36)
	(36,31)
	(31,36)
	(36,30)
	(30,36)
	(36,29)
	(29,36)
	(36,24)
	(24,36)
	(36,22)
	(22,36)
	(36,18)
	(18,36)
	(36,15)
	(15,36)
	(36,12)
	(12,36)
	(36,8)
	(8,36)
	(36,6)
	(6,36)
	(36,1)
	(1,36);
end;
